/*********************************************
    * Lab01 - FCD_FCR
    * Author: Coso
    * Creation Date: Mar, 2019
    *********************************************/
instance_name = "small_instance_22_FCD_FCR";

d = 2;
r = 3;

SCj = [195 190];
Fj = [2381, 4542];
Dk = [80 41 94];

Cjk = [[60 63 60]
 [44 68 46]];
Fjk = [[839 759 838]
 [634 538 772]];
